C8
1.0
   4.2758963316756224   -0.0000000642240812    0.0000001224666428
  -0.0000000212948268    2.4696261810061579    0.0000000075351459
   0.0000000843484662    0.0000000156521795    8.0875668586616722
C
8
direct
   0.3332642032347723    0.0000000066616087   -0.0000000004224942 C
  -0.3332642036175146    0.5000000197974285    0.5000000079366050 C
  -0.3332641984159522    0.0000000111768129   -0.0000000002637753 C
   0.3332642079296362    0.5000000183115524    0.4999999966287919 C
   0.8332642070688226    0.4999999921257258   -0.0000000002361580 C
   0.1667357892328152    0.9999999854282705    0.5000000034444282 C
   0.1667357888722697    0.4999999900741760   -0.0000000005056379 C
   0.8332642073139880    0.9999999761112049    0.4999999933740055 C
