C4
1.0
   2.1378764342380729   -1.2343040361240076    0.0000000543841499
  -0.0000007002635662    2.4686068593559289   -0.0000000056140321
   0.0000001825538138   -0.0000000172083519    8.0184960437674953
C
4
direct
   0.6666666377793508    0.3333333522853287    0.5000000014166902 C
  -0.0000000517200596   -0.0000000004971246   -0.0000000006855597 C
   0.0000000358143777   -0.0000000151198531    0.5000000013205453 C
   0.3333333727028608    0.6666666646461733   -0.0000000020776385 C
