C8
1.0
   8.0775236266107342    0.0000041597700125    0.0000003744788961
   0.0000025292648893    4.2759299886628073    0.0000000599190751
   0.0000002278976824    0.0000000599725764    2.4689449720058163
C
8
direct
   0.2503032136350063    0.9172194643325003    0.3778908121332243 C
  -0.2503032213617628   -0.9172194926097925    0.3778908085841332 C
   0.7503032345356104   -0.4172194964563840    0.8778907804723093 C
   0.2496967522270253    1.4172194924944141    0.8778907999453703 C
   0.7505215645094521    0.4161265328558912    0.3780151132476928 C
   0.2494784401481909    0.5838734914198663    0.3780150996481644 C
   0.2505215229054902    0.0838734661622089    0.8780150804752712 C
   0.7494784835724693    0.9161265306662227    0.8780150982992584 C
