C4
1.0
   2.1379751983687618   -1.2343605793477099   -0.0000004718092879
  -0.0000000013677410    2.4687211563264482    0.0000001787037345
  -0.0000003160051199    0.0000001278719375    8.2039011978190466
C
4
direct
   0.3333332171453983    0.6666666146079595    0.5507288721560867 C
   0.6666667665149149    0.3333333679088045    1.0507289452262980 C
  -0.0000001263363804   -0.0000000578048433    0.5506037792713643 C
   0.0000001419741702    0.0000000739317665    0.0506037265275339 C
