C8
1.0
   8.0764919619132804   -0.0000025252089843   -0.0000003823961778
  -0.0000025888305736    4.2769809880919372   -0.0000001525162507
  -0.0000002859082972   -0.0000001112302753    2.4692133199934325
C
8
direct
   0.2501350024316702    0.1616844239497920    0.7499169899747804 C
  -0.2501349978102965   -0.1616844308933914    0.7499169710040882 C
   0.2498649935093673    0.6616844424636917   -0.7499169848466647 C
   0.7501350216220681    0.3383155846466813   -0.7499169781535932 C
   0.7496703428208925    0.0049722122833449    0.2498302174279222 C
   0.2503296564178995    0.9950277667365247    0.2498302161308547 C
   0.7503296430533904    0.5049722028803443    0.7501697780599947 C
   0.2496703420822504    0.4950277864249822    0.7501697808071273 C
