C8
1.0
   8.1382240313861338    0.0000010793610451   -0.0000002786380148
   0.0000005885162226    2.4689238178637556   -0.0000000193866556
  -0.0000002167321640   -0.0000000276563072    4.2774230019427879
C
8
direct
   0.0000000000106915    1.2501164114164962    0.3783949436751451 C
   0.0000000005061006   -1.2501164098242763    0.8783949744821404 C
   0.4999999888563878    1.7501163967573630    0.3783949491196883 C
   0.5000000004048432   -0.7501164078267901    0.8783949625734906 C
   0.0000000006773521    0.2499978823993806    0.7113967810225812 C
  -0.0000000000053678    0.7500021161954448    0.2113967711793810 C
   0.5000000005585937    0.7499978901269775    0.7113967757125851 C
   0.5000000090133849    0.2500021267348937    0.2113967789133583 C
