C8
1.0
   8.0442057479466342   -0.0000004852009970    0.0000003596923474
  -0.0000002706594234    2.4703014318676981    0.0000000142670660
   0.0000003375320822    0.0000000240003250    4.2744292860457893
C
8
direct
   0.7499168643359262    0.7185966693618231    0.8331064908692614 C
  -0.7499168963716781   -0.7185966702210516    0.8331064789334529 C
  -0.2499168633586384    1.2185966970569695   -0.3331064993129926 C
   1.2499168859425942   -0.2185966774483830   -0.3331064519709644 C
  -0.7499168947306549   -0.7185966746389824   -0.8331065069809277 C
   0.7499168548535110    0.7185966657714929   -0.8331065084027408 C
   1.2499169159007009   -0.2185966933395589    1.3331064884318995 C
  -0.2499168547769366    1.2185966855450958    1.3331065121358001 C
