C4
1.0
   2.1381389727622255   -1.2344551856810981   -0.0000005313143426
  -0.0000000155775865    2.4689103443810438   -0.0000000255730907
  -0.0000013433697123   -0.0000000546801811    8.2139040843320785
C
4
direct
  -0.0000000028913823   -0.0000000084345553    0.1121814396396207 C
  -0.0000000052624183   -0.0000000076364432    0.6121814940492556 C
   0.3333333389020086    0.6666666749168839    0.6122107152177445 C
   0.6666666708006477    0.3333333424170746    0.1122107606315289 C
