C8
1.0
   4.2752053418344760   -0.0000004397920118   -0.0000000528403795
  -0.0000004513331805    8.0843653219100435   -0.0000001361387224
  -0.0000000509811129   -0.0000001279897341    2.4694093015634744
C
8
direct
  -0.1491426675601055    0.2499999932689618    0.2499999982430556 C
   0.6491426826019328    0.7500000045871947    0.2499999941472839 C
   0.1491427106825240    0.7500000013894156    0.7500000000648965 C
   0.3508573093383083    0.2499999975121784    0.7499999936365932 C
   0.1844695542846779    0.2500000052719441    0.2500000099016097 C
   0.3155304479564726    0.7499999951167925    0.2500000014308082 C
   0.8155304286956065    0.7499999990149846    0.7500000037798952 C
   0.6844695358092812    0.2500000040792486    0.7499999978481789 C
