C4
1.0
   2.1388001539670687   -1.2348368947633648    0.0000000144281647
   0.0000000413335570    2.4696738611185478   -0.0000000091117382
   0.0000000256632793   -0.0000000205128525    8.1319978749014190
C
4
direct
   0.6666666554856689    0.3333333270341314    0.2500000002620288 C
   0.3333333322306559    0.6666666340092365    0.7499999985205228 C
   0.0000000188726469    0.0000000100846035    0.2499999903007898 C
   0.0000000092261986    0.0000000314524067    0.7500000107516051 C
