Ag3 S1 Br1
1.0
   4.8356582803389827    0.0000001076434818   -0.0000000269100644
   0.0000001076434811    4.8356580876897661   -0.0000000373840268
  -0.0000000239131304   -0.0000000332206189    5.0479269463485954
Ag Br S
3 1 1
direct
   0.0000000067811329    0.5000000035388773    0.1324472707838465 Ag
   0.4999999979867193    0.0000000011591808   -0.1324472429452840 Ag
   0.4999999949328328    0.5000000025631651    0.4999999846943717 Ag
   0.0000000062210350   -0.0000000012531942    0.4999999914339165 Br
   0.4999999937924176    0.4999999957083250   -0.0000000029435733 S
