Ag12 S4 Br4
1.0
   7.6279170290783727    0.0000003540636199   -0.0000003653555581
   0.0000007077030547   12.7005546343842219   -0.0000031350867487
  -0.0000005699092493   -0.0000024466382666    6.0070042411224618
Ag Br S
12 4 4
direct
  -0.0000000062241910    0.0000000073279204   -0.0000000017053826 Ag
   0.5000000030795250   -0.0000000090505994    0.0000000003516347 Ag
   0.0000000085656235   -0.0000000083000172    0.4999999947831413 Ag
   0.4999999977942309    0.0000000115570954    0.5000000081568784 Ag
   0.2000270564093850    0.2027361679253794    0.6041296779685889 Ag
   0.2999718519861849   -0.2027350843898275    0.6041311627558427 Ag
  -0.2000281696357607    0.2027351259761893   -0.1041311662377628 Ag
   0.7000270556831373   -0.2027361178917733   -0.1041297264650148 Ag
  -0.2000270887453072   -0.2027361547038774   -0.6041297078051830 Ag
   0.7000281597143311    0.2027350780469224   -0.6041311888225552 Ag
   0.2000281616996944   -0.2027351357304548    1.1041311391997997 Ag
   0.2999729669661668    0.2027361214493852    1.1041297094969189 Ag
   0.0000021854596347    0.6488133750809174    0.2500011910849066 Br
   0.5000022730568369    0.3511866035220878    0.2499988233415197 Br
  -0.0000022578115098    0.3511866236906870    0.7499988075592255 Br
   0.4999977980529153    0.6488133942958100    0.7500011860394464 Br
   0.0000011306634561    0.1525386363566034    0.2500001852047313 S
   0.5000010629763307    0.8474613647477919    0.2499998455551728 S
  -0.0000010742377567    0.8474613543073001    0.7499998566439100 S
   0.4999988808502683    0.1525386390790280    0.7500002047225057 S
