Ag9 S3 Br3
1.0
   6.1270486995637397   -3.5374530045362937    0.0000001661216568
   0.0000001396130326    7.0749062508894607    0.0000000453589782
   0.0000003237391426    0.0000000673572975    8.4590256193531488
Ag Br S
9 3 3
direct
   0.5737070905013119    0.3607031298079570    0.6998630361345504 Ag
  -0.3607031193850319    0.2130040042571293    1.0331963611204331 Ag
  -0.2130039472389140   -0.5737070961538422    1.3665296902130502 Ag
   0.3607031127816994    0.5737071169513260   -0.6998630159161521 Ag
   0.2130039420673657   -0.3607031254299333   -0.0331963653117464 Ag
  -0.5737071327165789   -0.2130039924870709   -0.3665296978409576 Ag
   0.7801166106815488    0.0000000056165322    0.3333333073990894 Ag
  -0.0000000107584119    0.7801165637808219    0.6666666845294928 Ag
   0.2198834238350706    0.2198834178951861    0.0000000151431635 Ag
   0.3661135395781720   -0.0000000231554936    0.3333333364904692 Br
   0.0000000201939755    0.3661135311741444    0.6666666675213612 Br
   0.6338865108146431    0.6338864510656886   -0.0000000236534486 Br
   0.3323839117528207    0.0000000047483336    0.8333333292726980 S
  -0.0000000226993037    0.3323839207199432    0.1666666700658456 S
   0.6676160697237378    0.6676160862743119    0.5000000042133081 S
