Ag12 S4 Br4
1.0
   6.9558180173436996   -0.0000003178032276    0.0000002000342654
  -0.0000003178032575    6.9558176964886895   -0.0000000698690630
   0.0000002117081068   -0.0000000739465352   10.0123392132878788
Ag Br S
12 4 4
direct
  -0.0000000027545320    0.5000000013318532    0.4324337521116322 Ag
   0.5000000008579168   -0.0000000008957774    0.4324337421597513 Ag
   0.5000000007164808   -0.0000000020422403    0.9324337559574973 Ag
   0.0000000008475932    0.5000000139720728    0.9324337452897006 Ag
   0.2227240496143018    0.2229326707297551    0.2484066172518296 Ag
  -0.2227240454095895   -0.2229326689312822    0.2484066119989024 Ag
  -0.2229326672140216    0.2227240470669284    0.2484066149617984 Ag
   0.2229326726648063   -0.2227240408821714    0.2484066143621153 Ag
   0.7227240427663588    0.2770673401206968    0.7484066103819185 Ag
   0.2772759508874814    0.7229326751499608    0.7484066100310185 Ag
   0.2770673350194086    0.2772759539146535    0.7484066139795740 Ag
   0.7229326756863972    0.7227240452105212    0.7484066123291900 Ag
  -0.0000000127292030    0.0000000011345765    0.4424001821959353 Br
   0.4999999908683974    0.4999999947595067    0.9424001870843293 Br
   0.0000000080866812   -0.0000000200967396    0.8611686684513249 Br
   0.4999999963245763    0.4999999866761074    0.3611686641449466 Br
   0.0000000034504249    0.4999999961004696    0.1809730719349729 S
   0.5000000033605657    0.0000000026814902    0.1809730734272413 S
   0.4999999980029728    0.0000000062207201    0.6809730713659495 S
  -0.0000000014779463    0.4999999982772704    0.6809730865388007 S
