Ag12 S4 Br4
1.0
   5.7072828266800286   -3.2951017353694985    0.0000004158243816
  -0.0000002298231996    6.5902030726736793    0.0000012573736369
   0.0000008569467287    0.0000008933788650   19.1244323765858795
Ag Br S
12 4 4
direct
   0.2856511919325234    0.9214942262649011    0.0046922953903900 Ag
  -0.9214941692983329   -0.6358430375899987    0.0046922973897159 Ag
   0.6358430881104357   -0.2856510591398480    0.0046923062466499 Ag
  -0.2856510495201667   -0.9214941176671672    0.5046922826190785 Ag
   0.9214942047998805    0.6358430906663358    0.5046923083307246 Ag
  -0.6358430211505588    0.2856511851681175    0.5046922965159761 Ag
   0.3160043892806425    0.9181062530437351    0.6134201010872680 Ag
   0.0818936361449471    0.3978980638341478    0.6134201008192006 Ag
   0.6021018285570811    0.6839955121567921    0.6134201108749859 Ag
   0.6839955127246415    0.0818936303293775    0.1134201224985241 Ag
   0.9181062581529371    0.6021018176300642    0.1134201144252427 Ag
   0.3978980862695510    0.3160043854608863    0.1134201037324122 Ag
  -0.0000000751073328   -0.0000000962118257    0.6780349718073669 Br
  -0.0000000614751881   -0.0000000744921966    0.1780349575361924 Br
   0.0000000766602027    0.0000000826077770    0.4270474039081776 Br
   0.0000000867974286    0.0000001010587165    0.9270473856748773 Br
   0.3333332944551752    0.6666666311376076    0.0984695688022376 S
   0.6666666234011218    0.3333332938673747    0.5984695441661595 S
   0.3333333797269096    0.6666667279273282    0.5116536964320277 S
   0.6666667189207771    0.3333333848682210    1.0116536980915163 S
