Ag12 S4 Br4
1.0
   7.6412881855354504   -0.0000003177691986    0.0000007652777523
  -0.0000003194779870    6.1578187137532394    0.0000003870892641
   0.0000011625728485    0.0000005849019781   10.1401139314008670
Ag Br S
12 4 4
direct
   0.2500005854609888    0.7499999288580941    0.6936813183941116 Ag
   0.7499994120623631    0.2500000508601760   -0.1936813348389948 Ag
   0.7499994192537479    0.2500000611384753   -0.6936813155411541 Ag
   0.2500005868316740    0.7499999320823374    1.1936813250356832 Ag
  -0.0000000000309962    0.0000000024702158    0.5000000002332603 Ag
   0.4999999845284239    0.5000000078448193    0.5000000020435531 Ag
   0.0000000002567827    0.4999999990182773   -0.0000000016863971 Ag
   0.5000000083221939    0.0000000003176027   -0.0000000035133943 Ag
   0.0000000025903537   -0.0000000003845592   -0.0000000056533584 Ag
   0.5000000011508380    0.4999999985960130   -0.0000000021907674 Ag
  -0.0000000022889929    0.5000000018141931    0.5000000014010684 Ag
   0.4999999998480538    0.0000000002185506    0.5000000020480199 Ag
   0.2499991621564131    0.2500000944818173    0.6811586482494967 Br
   0.7500008304502892    0.7499999223774182    0.8188413583235884 Br
   0.7500008455152504    0.7499999138898044    0.3188413508246321 Br
   0.2499991627698123    0.2500000934986255    0.1811586506186273 Br
   0.2500002105077401    0.7500000268797314   -0.0582185071731120 S
   0.7499997920522616    0.2499999657485167    0.5582185271135615 S
   0.7499997791510454    0.2499999716348765    1.0582185125937749 S
   0.2500002186886397    0.7500000281755975    0.4417814732197927 S
