Ag9 S3 Br3
1.0
   5.9527995171492369   -3.4368498554239566   -0.0000007274727340
   0.0000005772347955    6.8737007106478822    0.0000005961104220
  -0.0000002924635066    0.0000003516003252    8.7548357959558682
Ag Br S
9 3 3
direct
   0.5980446691750835   -0.0000000008132482    0.5000000057632215 Ag
  -0.0000000075016890    0.5980446694062419    0.4999999873042173 Ag
  -0.5980446715728402   -0.5980446708977658    0.5000000123965080 Ag
   1.2647113395318028    0.3333333323032596    0.8333333447313153 Ag
   0.6666666710855748    0.9313780074043732    0.8333333311027371 Ag
   0.0686219933105208   -0.2647113377448991    0.8333333323587375 Ag
   0.9313780005209668    0.6666666701184237    1.1666666559733876 Ag
   0.3333333254503009    1.2647113294193064    1.1666666251442555 Ag
  -0.2647113352051474    0.0686219983460043    1.1666666695743630 Ag
   0.0000000015464698   -0.0000000040499241    0.4999999994816665 Br
   0.6666666670868767    0.3333333307849420    0.8333333307319107 Br
   0.3333333379588780    0.6666666700498299    0.1666666698071372 Br
   0.0000000009763397   -0.0000000004885696    0.0000000062428087 S
   0.6666666723917084    0.3333333374522133    0.3333333630713541 S
   0.3333333349157862    0.6666666659313052    0.6666666673986049 S
