Ag12 S4 Br4
1.0
   7.8650707215928763    0.0000000221137150    0.0000002005448600
   0.0000000221137142    7.8650727412473520   -0.0000002485789112
   0.0000002005448670   -0.0000002485789361    7.8650705586437368
Ag Br S
12 4 4
direct
   1.0503848250282737    0.7845740745427994    0.0689127935615211 Ag
  -0.5503848359916428   -0.7845740383175566    0.5689127789635015 Ag
  -1.0503848682956456    1.2845740050028658    0.4310872214332784 Ag
   1.5503848092391028   -0.2845740754175455   -0.0689127897067415 Ag
   0.0689125196654675    1.0503849628640023    0.7845739562583989 Ag
   0.5689125182158659   -0.5503849573456768   -0.7845739272183230 Ag
   0.4310875177879765   -1.0503849939087380    1.2845738709374530 Ag
  -0.0689125117869950    1.5503849690935445   -0.2845739155478378 Ag
   0.7845737132758435    0.0689123610165998    1.0503849765868263 Ag
  -0.7845737329692293    0.5689123797699431   -0.5503849407963002 Ag
   1.2845736744389011    0.4310876485891646   -1.0503849865295856 Ag
  -0.2845737028442873   -0.0689123628936145    1.5503849435864931 Ag
   0.1552709040570134    0.1552706538947684    0.1552707282158255 Br
   0.3447291266298311    0.8447294224324391    0.6552707709719114 Br
   0.8447291788574612    0.6552706198186640    0.3447292294131022 Br
   0.6552709298222206    0.3447293799112780    0.8447292925177481 Br
   0.8323457913414164    0.8323458255168992    0.8323458259882678 S
   0.6676541708738912    0.1676541584011122    0.3323458303626539 S
   0.1676541824482073    0.3323458195788755    0.6676541486328810 S
   0.3323457868298105    0.6676541514781880    0.1676541869578014 S
