Ag12 S4 Br4
1.0
   8.9293628399603957   -0.0000322047530511   14.9633257350008950
  -0.0000107590032556    7.4150496606783589   -0.0000184681313779
   6.4771162130402056   -0.0000344461043276   18.8772524932258001
Ag Br S
12 4 4
direct
   0.3845227896866718    0.6998836621307046    0.2527002906865370 Ag
   0.3845195487669092   -0.6998781720564627    0.2527028257456776 Ag
   0.8845227383716845    1.1998836502837422    0.2527003316607248 Ag
   0.8845195941285593   -0.1998781763956912    0.2527027955934975 Ag
   0.1392745645152087   -0.0000012788993811    0.7507022805861694 Ag
   0.6392745582198787    0.4999987564167709    0.7507022987800558 Ag
   0.5943936439619759    0.7804581714389005    0.9302340343063489 Ag
   0.5943930922153302    0.2195434260107964    0.9302341852565315 Ag
   0.0943936219791990    0.2804581695248226    0.9302340769130297 Ag
   0.0943931084137002    0.7195434585043656    0.9302341499771938 Ag
   0.5421717668795645   -0.0000029614737055    0.8485458555998764 Ag
   1.0421717505428743    0.4999970197012845    0.8485458622811852 Ag
   0.0679528606016752    0.7406144072433870    0.2205621746679882 Br
   0.0679526016053985    0.2593811104465185    0.2205638319002627 Br
   0.5679528441310819    0.2406144034043209    0.2205621999025416 Br
   0.5679525968758781    0.7593810799415596    0.2205638226027551 Br
   0.7934411461175022    0.0000010052254816    0.2274569338216295 S
   0.2934411319531975    0.5000009607627485    0.2274569551259085 S
   0.0593699876863989    0.0000006413178902    0.4899628344330831 S
   0.5593699839845376    0.5000006688379174    0.4899628362169590 S
