Ag9 S3 Br3
1.0
   5.9432655437961754   -3.4313459213730471   -0.0000000055381692
   0.0000002470520352    6.8626922706527713    0.0000000419726454
   0.0000001087994987    0.0000002560042387    8.7531601784811404
Ag Br S
9 3 3
direct
   0.4171304173385488   -0.0000000209598410    0.5000000011434586 Ag
   0.0000000279315810    0.4171304432839267    0.5000000010181660 Ag
  -0.4171304241057154   -0.4171304299363507    0.4999999999604632 Ag
   1.0837971224530962    0.3333333777294611    0.8333333328596445 Ag
   0.6666666404610083    0.7504637601032419    0.8333333334106444 Ag
   0.2495362503893365   -0.0837971042547849    0.8333333329508238 Ag
   0.7504637792859993    0.6666666937246314    1.1666666658935365 Ag
   0.3333332984694478    1.0837970874045615    1.1666666654801596 Ag
  -0.0837970772748460    0.2495362225326482    1.1666666652384814 Ag
   0.0000000034896559   -0.0000000115319773    0.5000000003417359 Br
   0.6666666615872112    0.3333333352101814    0.8333333328462719 Br
   0.3333333320170427    0.6666666606392238    0.1666666672975919 Br
  -0.0000000107564461   -0.0000000146171408   -0.0000000011467998 S
   0.6666666431537486    0.3333333248764436    0.3333333347816407 S
   0.3333333344078455    0.6666666751905912    0.6666666679150547 S
