B6 N6
1.0
   2.1755765131126616   -1.2560695892560230    0.0000009487584779
   0.0000000246893380    2.5121392212752509    0.0000009726655443
   0.0000053032244941    0.0000031128246483   21.5220659788261983
B N
6 6
direct
  -0.0000000131015252   -0.0000000070462477    0.2088431665029515 B
  -0.0000000014681693    0.0000000010362234    0.7088431681593738 B
   0.6666666657253523    0.3333333344456381    0.5421764902428348 B
   0.6666666632423944    0.3333333305600080    1.0421764975770411 B
   0.3333333333572625    0.6666666542888080    0.8755098195796110 B
   0.3333333332814732    0.6666666735757492    1.3755098232447456 B
   0.0000000025309741    0.0000000018978796    0.5423332540394749 N
   0.0000000005620391    0.0000000043993763    0.0423332489087184 N
   0.6666666801309192    0.3333333422852665    0.8756665915911498 N
   0.6666666668202940    0.3333333371252805    0.3756665912257094 N
   0.3333333305154661    0.6666666598335014    0.2089999299308701 N
   0.3333333462577291    0.6666666725413740    0.7089999281817458 N
