B4 N4
1.0
   2.1756940458323437   -1.2561375564165693    0.0000065875188080
   0.0000067066224145    2.5122867290439004    0.0004151533692407
   0.0002816910740445    0.0004728957401968   14.6064388095443416
B N
4 4
direct
   0.0000908986254393    0.0001761841269901    0.3247056975329448 B
   0.0000908986417245    0.0001761927344276    0.8247057304320452 B
   0.3332471916532458    0.6664996434551212    0.0664234263429996 B
   0.3332471859577849    0.6664996438984563    0.5664234228539641 B
   0.3334205080936102    0.6668356841733369    0.8248264257667280 N
   0.3334205083811890    0.6668356810873822    0.3248264300438337 N
   0.6665747381994723    0.3331551490226688    0.5664772538730979 N
   0.6665747387435943    0.3331551560393446    1.0664772711176593 N
