B4 N4
1.0
   2.5120917376959611    0.0000000090825395   -0.0424560898423431
   0.0000000224932284    4.3505732423996406    0.0000000841361382
   0.1142320074174795    0.0000000550740137    7.2339384413231116
B N
4 4
direct
   0.0000000052337619    0.0198447854305904    0.0000000017509499 B
   0.4999999873841193    0.5198447797447583    0.0000000000472803 B
  -0.0000000002336479    0.6021045250800032    0.5000000001427098 B
   0.5000000019838010    0.1021045172336416    0.4999999940599429 B
   0.0000000087555839    0.6867495670439929   -0.0000000010078213 N
   0.4999999935525166    0.1867495655309589    0.0000000019083492 N
   0.0000000008682624    0.2689360096072172    0.4999999992386883 N
   0.4999999993544790    0.7689360290433318    0.5000000036602863 N
