B2 N2
1.0
   2.1741013377666776   -1.2541933553191678   -0.0971743466549527
   0.0014942601571431    2.5109748451502387    0.0634378709593441
  -0.0607854016534474    0.0510191203339878    7.1710227194268281
B N
2 2
direct
   0.0219603984726445    0.0189295374509292    0.4735348082507550 B
   0.6444573844486701    0.3149238699691367   -0.0243726762143407 B
  -0.0213305410396324   -0.0184461685850748    0.9756381604632559 N
   0.3549127533557785    0.6845927624725572    0.4727381084945506 N
