B2 N2
1.0
   2.1762636792282932   -1.2564664169550435   -0.0000000216695041
   0.0000000092702039    2.5129328499665364    0.0000000025101322
  -0.0000000359044656    0.0000000038233108    6.9774560453538328
B N
2 2
direct
   0.3333333336586268    0.6666666688743252    0.7499999962255172 B
   0.6666666647522392    0.3333333370051229    0.2500000045334010 B
   0.3333333351991968    0.6666666626243934    0.2500000033007468 N
   0.6666666661735372    0.3333333305463607    0.7499999959240111 N
