B4 N4
1.0
   2.1755534595293797   -1.2560563502944899    0.0000004634870509
   0.0000000730761394    2.5121128271605633    0.0000000311490132
   0.0000003933114929    0.0000000221472699   14.5288314430136030
B N
4 4
direct
  -0.0000000321717608   -0.0000000210187268    0.5665522571624053 B
  -0.0000000260592025   -0.0000000181747521    1.0665522698333247 B
   0.6666667025095173    0.3333333544309444    0.8169944241187371 B
   0.6666666944310652    0.3333333477575458    0.3169944483674098 B
   0.0000000173857730    0.0000000095543249    0.8168613200447805 N
   0.0000000204680363    0.0000000200848782    0.3168613343808737 N
   0.3333333132890228    0.6666666575837021    0.0664659716696050 N
   0.3333333110926014    0.6666666532333897    0.5664659679296790 N
