B4 N4
1.0
   2.1758824390462279   -1.2562459991874748   -0.0000000367371733
   0.0000000327976049    2.5124920551820566    0.0000000806447227
   0.0000000059084540    0.0000001150982193   14.3514763735046991
B N
4 4
direct
  -0.0000000001002192   -0.0000000120032121    0.2500000032505846 B
   0.0000000066919811    0.0000000106835941    0.7499999959766519 B
   0.6666666569678331    0.3333333266774657   -0.0000000018887810 B
   0.6666666653157370    0.3333333390747869    0.4999999833358187 B
   0.0000000240887912    0.0000000146276061   -0.0000000052379629 N
   0.0000000052877651   -0.0000000013288185    0.5000000080791872 N
   0.3333333289016119    0.6666666781019550    0.2499999986711834 N
   0.3333333215722974    0.6666666537866034    0.7500000206737851 N
