B6 N6
1.0
   2.1757402817898619   -1.2561641008925990    0.0000028604340467
  -0.0000000489618996    2.5123281169806808   -0.0000027091176563
   0.0000077884076344   -0.0000121343966014   21.7245101076131633
B N
6 6
direct
   0.2874332927659274    0.1048810437039083    0.8567843241611645 B
  -0.1048810390313413    0.1825522010042233    1.5234509807792815 B
  -0.1825522137072412   -0.2874332803427425    1.1901176495468397 B
   0.0091508093139353    0.4603327648117130    0.0203680825058396 B
   0.5396672643114502    0.5488180321154995    0.6870347555515018 B
   0.4511819253653330    0.9908491734401398    0.3537014193328953 B
   0.3415566061467704    0.1265801334292526    1.0202999181198278 N
   0.8734198407464616    0.2149765113203436    0.6869665953397283 N
   0.7850235408381343    0.6584434013066517    0.3536332457795925 N
   0.4839768419743210    1.0455546527187807    0.1902220275232339 N
  -0.0455546384416458    0.4384221960264999    0.8568886875851005 N
   0.5615778091246681    0.5160231663534913    0.5235553456187051 N
