B2 N2
1.0
   2.1753452657501104   -1.2559361585999331   -0.0000000098025727
   0.0000000064870167    2.5118723284357114   -0.0000000067263635
  -0.0000000178316059   -0.0000000078896084    7.1331824105599813
B N
2 2
direct
   0.3333333267941930    0.6666666609366895    0.2500000016811114 B
   0.6666666801242134    0.3333333389280453    0.7499999996487732 B
   0.6666666734536409    0.3333333377053565    0.2500000008007014 N
   0.3333333213755057    0.6666666610790994    0.7499999990585802 N
