B2 N2
1.0
   3.7639576913395212   -0.0000000174678933   -0.6991369160972762
  -0.0000000088222833    2.5124137634234440   -0.0000000049857801
  -0.6849984799053792   -0.0000000086019361    4.2979797847716297
B N
2 2
direct
   0.5158241100297067    0.7512093970494630    0.0397409800938718 B
   0.5158241060703949   -0.7512094103278818    0.5397410151081020 B
   0.5146990412575425    0.7489113240292439    0.7058467221906252 N
   0.5146990560175804    0.2510886893155969    0.2058466785518792 N
